1 3 100 256633.88
1 3 200 256911.84
1 3 300 257160.78
2 3 100 319674.98
2 3 200 335821.70
2 3 300 351865.43
3 3 100 337999.51
3 3 200 342297.19
3 3 300 360219.76
4 3 100 344926.08
4 3 200 350793.49
4 3 300 359292.60
5 3 100 339289.63
5 3 200 330029.93
5 3 300 346057.14
